presolving:
(round 1, fast)       1883 del vars, 825 del conss, 0 add conss, 57 chg bounds, 366 chg sides, 0 chg coeffs, 0 upgd conss, 0 impls, 9523 clqs
(round 2, fast)       3083 del vars, 2049 del conss, 0 add conss, 57 chg bounds, 366 chg sides, 0 chg coeffs, 0 upgd conss, 0 impls, 9523 clqs
   (0.1s) running MILP presolver
   (0.2s) MILP presolver (2 rounds): 0 aggregations, 0 fixings, 0 bound changes
(round 3, exhaustive) 3084 del vars, 2146 del conss, 0 add conss, 57 chg bounds, 366 chg sides, 0 chg coeffs, 0 upgd conss, 0 impls, 9521 clqs
(round 4, exhaustive) 3084 del vars, 2146 del conss, 0 add conss, 57 chg bounds, 366 chg sides, 0 chg coeffs, 9699 upgd conss, 0 impls, 9521 clqs
(round 5, exhaustive) 3084 del vars, 2680 del conss, 178 add conss, 57 chg bounds, 366 chg sides, 0 chg coeffs, 9699 upgd conss, 0 impls, 9521 clqs
(round 6, exhaustive) 3262 del vars, 2858 del conss, 356 add conss, 57 chg bounds, 366 chg sides, 0 chg coeffs, 9699 upgd conss, 0 impls, 9165 clqs
(round 7, fast)       3262 del vars, 3036 del conss, 356 add conss, 57 chg bounds, 366 chg sides, 0 chg coeffs, 9699 upgd conss, 0 impls, 9165 clqs
   (5.0s) probing: 1000/8729 (11.5%) - 0 fixings, 0 aggregations, 3383771 implications, 0 bound changes
   (5.0s) probing: 1001/8729 (11.5%) - 0 fixings, 0 aggregations, 3387068 implications, 0 bound changes
   (5.0s) probing aborted: 1000/1000 successive useless probings
   (5.0s) symmetry computation started: requiring (bin +, int -, cont +), (fixed: bin -, int +, cont -)
   (5.0s) no symmetry present
presolving (8 rounds: 8 fast, 5 medium, 5 exhaustive):
 3262 deleted vars, 3036 deleted constraints, 356 added constraints, 57 tightened bounds, 0 added holes, 366 changed sides, 0 changed coefficients
 0 implications, 38500 cliques
presolved problem has 8729 variables (8729 bin, 0 int, 0 impl, 0 cont) and 9165 constraints
   9165 constraints of type <setppc>
Presolving Time: 5.00

 time | node  | left  |LP iter|LP it/n|mem/heur|mdpt |vars |cons |rows |cuts |sepa|confs|strbr|  dualbound   | primalbound  |  gap   | compl. 
p 5.2s|     1 |     0 |  1230 |     - |  clique|   0 |8729 |9165 |9165 |   0 |  0 |   0 |   0 | 1.071061e+07 | 5.082469e+05 |2007.36%| unknown
  5.6s|     1 |     0 |  3489 |     - |   108M |   0 |8729 |9168 |9165 |   0 |  0 |   3 |   0 | 5.700461e+05 | 5.082469e+05 |  12.16%| unknown
  7.0s|     1 |     0 |  4335 |     - |   110M |   0 |8729 |9169 |9170 |   5 |  1 |   4 |   0 | 5.675404e+05 | 5.082469e+05 |  11.67%| unknown
  8.4s|     1 |     0 |  5529 |     - |   115M |   0 |8729 |9170 |9173 |   8 |  2 |   5 |   0 | 5.655004e+05 | 5.082469e+05 |  11.26%| unknown
  9.8s|     1 |     0 |  6113 |     - |   118M |   0 |8729 |9170 |9175 |  10 |  3 |   5 |   0 | 5.650513e+05 | 5.082469e+05 |  11.18%| unknown
 11.3s|     1 |     0 |  6824 |     - |   122M |   0 |8729 |9170 |9182 |  17 |  4 |   5 |   0 | 5.643196e+05 | 5.082469e+05 |  11.03%| unknown
 12.4s|     1 |     0 |  7022 |     - |   124M |   0 |8729 |9171 |9186 |  21 |  5 |   6 |   0 | 5.642085e+05 | 5.082469e+05 |  11.01%| unknown
 13.9s|     1 |     0 |  7466 |     - |   130M |   0 |8729 |9172 |9190 |  25 |  6 |   7 |   0 | 5.638564e+05 | 5.082469e+05 |  10.94%| unknown
 14.6s|     1 |     0 |  7767 |     - |   133M |   0 |8729 |9173 |9198 |  33 |  7 |   8 |   0 | 5.636692e+05 | 5.082469e+05 |  10.90%| unknown
 15.2s|     1 |     0 |  8046 |     - |   135M |   0 |8729 |9174 |9209 |  44 |  8 |   9 |   0 | 5.634183e+05 | 5.082469e+05 |  10.86%| unknown
 16.2s|     1 |     0 |  8308 |     - |   141M |   0 |8729 |9174 |9213 |  48 |  9 |   9 |   0 | 5.633417e+05 | 5.082469e+05 |  10.84%| unknown
 17.6s|     1 |     0 |  8598 |     - |   144M |   0 |8729 |9174 |9219 |  54 | 10 |   9 |   0 | 5.631411e+05 | 5.082469e+05 |  10.80%| unknown
 18.0s|     1 |     0 |  8726 |     - |   145M |   0 |8729 |9174 |9222 |  57 | 11 |   9 |   0 | 5.630677e+05 | 5.082469e+05 |  10.79%| unknown
 18.4s|     1 |     0 |  9056 |     - |   146M |   0 |8729 |9174 |9225 |  60 | 12 |   9 |   0 | 5.629722e+05 | 5.082469e+05 |  10.77%| unknown
 18.7s|     1 |     0 |  9136 |     - |   147M |   0 |8729 |9174 |9229 |  64 | 13 |   9 |   0 | 5.629310e+05 | 5.082469e+05 |  10.76%| unknown
 time | node  | left  |LP iter|LP it/n|mem/heur|mdpt |vars |cons |rows |cuts |sepa|confs|strbr|  dualbound   | primalbound  |  gap   | compl. 
 19.1s|     1 |     0 |  9319 |     - |   148M |   0 |8729 |9175 |9238 |  73 | 14 |  10 |   0 | 5.628001e+05 | 5.082469e+05 |  10.73%| unknown
 19.4s|     1 |     0 |  9397 |     - |   149M |   0 |8729 |9175 |9240 |  77 | 15 |  10 |   0 | 5.627605e+05 | 5.082469e+05 |  10.73%| unknown
 19.9s|     1 |     0 |  9865 |     - |   150M |   0 |8729 |9175 |9258 |  95 | 16 |  10 |   0 | 5.624866e+05 | 5.082469e+05 |  10.67%| unknown
 20.2s|     1 |     0 | 10003 |     - |   151M |   0 |8729 |9176 |9265 | 102 | 17 |  11 |   0 | 5.623626e+05 | 5.082469e+05 |  10.65%| unknown
 20.6s|     1 |     0 | 10198 |     - |   152M |   0 |8729 |9176 |9272 | 109 | 18 |  11 |   0 | 5.622297e+05 | 5.082469e+05 |  10.62%| unknown
 20.9s|     1 |     0 | 10315 |     - |   153M |   0 |8729 |9176 |9277 | 114 | 19 |  11 |   0 | 5.621641e+05 | 5.082469e+05 |  10.61%| unknown
 21.3s|     1 |     0 | 10494 |     - |   154M |   0 |8729 |9176 |9285 | 122 | 20 |  11 |   0 | 5.620487e+05 | 5.082469e+05 |  10.59%| unknown
 21.6s|     1 |     0 | 10582 |     - |   155M |   0 |8729 |9176 |9282 | 125 | 21 |  11 |   0 | 5.620250e+05 | 5.082469e+05 |  10.58%| unknown
 22.0s|     1 |     0 | 10961 |     - |   155M |   0 |8729 |9177 |9303 | 146 | 22 |  12 |   0 | 5.618492e+05 | 5.082469e+05 |  10.55%| unknown
 22.4s|     1 |     0 | 11142 |     - |   155M |   0 |8729 |9177 |9315 | 158 | 23 |  12 |   0 | 5.617503e+05 | 5.082469e+05 |  10.53%| unknown
 22.7s|     1 |     0 | 11208 |     - |   155M |   0 |8729 |9178 |9322 | 165 | 24 |  13 |   0 | 5.616995e+05 | 5.082469e+05 |  10.52%| unknown
 23.1s|     1 |     0 | 11344 |     - |   155M |   0 |8729 |9178 |9327 | 170 | 25 |  13 |   0 | 5.616144e+05 | 5.082469e+05 |  10.50%| unknown
 23.4s|     1 |     0 | 11454 |     - |   155M |   0 |8729 |9178 |9334 | 177 | 26 |  13 |   0 | 5.615511e+05 | 5.082469e+05 |  10.49%| unknown
 23.7s|     1 |     0 | 11475 |     - |   155M |   0 |8729 |9178 |9325 | 178 | 27 |  13 |   0 | 5.615381e+05 | 5.082469e+05 |  10.49%| unknown
 24.1s|     1 |     0 | 11645 |     - |   155M |   0 |8729 |9178 |9341 | 194 | 28 |  13 |   0 | 5.614517e+05 | 5.082469e+05 |  10.47%| unknown
 time | node  | left  |LP iter|LP it/n|mem/heur|mdpt |vars |cons |rows |cuts |sepa|confs|strbr|  dualbound   | primalbound  |  gap   | compl. 
 24.4s|     1 |     0 | 11680 |     - |   155M |   0 |8729 |9178 |9348 | 201 | 29 |  13 |   0 | 5.614227e+05 | 5.082469e+05 |  10.46%| unknown
 24.7s|     1 |     0 | 11749 |     - |   155M |   0 |8729 |9179 |9353 | 206 | 30 |  14 |   0 | 5.613816e+05 | 5.082469e+05 |  10.45%| unknown
 25.0s|     1 |     0 | 11786 |     - |   155M |   0 |8729 |9179 |9356 | 209 | 31 |  14 |   0 | 5.613680e+05 | 5.082469e+05 |  10.45%| unknown
 25.3s|     1 |     0 | 11787 |     - |   155M |   0 |8729 |9180 |9357 | 210 | 32 |  15 |   0 | 5.613679e+05 | 5.082469e+05 |  10.45%| unknown
 25.7s|     1 |     0 | 11809 |     - |   155M |   0 |8729 |9180 |9352 | 211 | 33 |  15 |   0 | 5.613659e+05 | 5.082469e+05 |  10.45%| unknown
 26.0s|     1 |     0 | 11826 |     - |   155M |   0 |8729 |9180 |9357 | 216 | 35 |  15 |   0 | 5.613620e+05 | 5.082469e+05 |  10.45%| unknown
d26.9s|     1 |     0 | 14420 |     - |farkasdi|   0 |8729 |9181 |9357 |   0 | 37 |  16 |   0 | 5.613620e+05 | 5.385000e+05 |   4.25%| unknown
 31.8s|     1 |     0 | 29326 |     - |   157M |   0 |8729 |9181 |9357 | 216 | 37 |  16 |   0 | 5.613620e+05 | 5.385000e+05 |   4.25%| unknown
 32.1s|     1 |     0 | 29332 |     - |   157M |   0 |8729 |9181 |9354 | 218 | 38 |  16 |   0 | 5.613619e+05 | 5.385000e+05 |   4.25%| unknown
 32.1s|     1 |     0 | 29341 |     - |   157M |   0 |8729 |9181 |9361 | 225 | 39 |  16 |   0 | 5.613610e+05 | 5.385000e+05 |   4.25%| unknown
 35.5s|     1 |     2 | 29341 |     - |   157M |   0 |8729 |9182 |9361 | 225 | 39 |  17 |  21 | 5.600079e+05 | 5.385000e+05 |   3.99%| unknown
*43.1s|     5 |     2 | 34417 |6054.8 |strongbr|   3 |8729 |9182 |9348 | 225 |  1 |  17 |  60 | 5.579723e+05 | 5.425880e+05 |   2.84%|  12.36%
*48.0s|     7 |     2 | 36808 |4435.0 |strongbr|   4 |8729 |9182 |9348 | 225 |  1 |  17 |  95 | 5.566786e+05 | 5.490080e+05 |   1.40%|  19.58%

SCIP Status        : problem is solved [optimal solution found]
Solving Time (sec) : 53.51
Solving Nodes      : 11
Primal Bound       : +5.49007972010421e+05 (4 solutions)
Dual Bound         : +5.49007972010421e+05
Gap                : 0.00 %
Solve Status: optimal
Solve Time: 53.51 seconds
Objective Value: 549007.97
